36983 41612 
38331 41080 
38855 40686 
36359 41878 
37268 41560 
36468 41851 
35863 42029 
37712 41484 
38643 40852 
36709 41758 
38958 40621 
36801 41734 
36567 41846 
37476 41528 
35503 42080 
36071 41997 
36213 41909 
38816 40709 
38161 41196 
37116 41579 
